results_rootrelaxation/bin012_090_014.srr.sol
solution status: optimal solution found
objective value:                                 33.5
_var254_                            0.142857142857143 	(obj:5)
_var282_                            0.321428571428571 	(obj:4)
_var507_                            0.071428571428571 	(obj:5)
_var595_                           0.0357142857142858 	(obj:4)
_var666_                            0.107142857142858 	(obj:2)
_var674_                            0.321428571428572 	(obj:3)
_var688_                            0.178571428571429 	(obj:2)
_var697_                           0.0714285714285711 	(obj:3)
_var701_                            0.178571428571429 	(obj:2)
_var722_                            0.214285714285716 	(obj:5)
_var726_                            0.321428571428572 	(obj:2)
_var734_                            0.142857142857144 	(obj:3)
_var742_                            0.535714285714286 	(obj:3)
_var757_                            0.464285714285714 	(obj:4)
_var766_                            0.071428571428571 	(obj:4)
_var768_                            0.535714285714286 	(obj:3)
_var771_                            0.250000000000001 	(obj:5)
_var788_                            0.214285714285714 	(obj:5)
_var789_                            0.107142857142857 	(obj:3)
_var792_                           0.0357142857142859 	(obj:3)
_var796_                            0.142857142857143 	(obj:4)
_var797_                           0.0357142857142863 	(obj:4)
_var802_                                            1 	(obj:2)
_var805_                            0.535714285714286 	(obj:2)
_var807_                            0.357142857142857 	(obj:4)
_var810_                           0.0357142857142861 	(obj:4)
_var815_                            0.178571428571428 	(obj:5)
_var816_                            0.464285714285715 	(obj:2)
_var822_                            0.464285714285714 	(obj:3)
_var825_                            0.464285714285714 	(obj:2)
_var831_                            0.107142857142857 	(obj:3)
_var832_                            0.071428571428571 	(obj:4)
_var833_                            0.107142857142856 	(obj:3)
_var837_                            0.321428571428571 	(obj:5)
_var839_                            0.214285714285714 	(obj:3)
_var841_                            0.285714285714285 	(obj:3)
_var842_                            0.571428571428571 	(obj:2)
_var843_                           0.0357142857142858 	(obj:2)
_var844_                           0.0714285714285714 	(obj:4)
_var848_                            0.178571428571428 	(obj:2)
_var851_                            0.464285714285714 	(obj:3)
_var852_                            0.357142857142857 	(obj:3)
_var863_                            0.142857142857143 	(obj:4)
_var871_                           0.0714285714285718 	(obj:3)
