results_rootrelaxation/bin012_090_014.srr.log
SCIP version 8.0.3.5 [precision: 8 byte] [memory: block] [mode: optimized] [LP solver: Soplex 6.0.1.3] [GitHash: 438792519e]
Copyright (c) 2002-2023 Zuse Institute Berlin (ZIB)

External libraries: 
  Readline 8.1         GNU library for command line editing (gnu.org/s/readline)
  Soplex 6.0.1.3       Linear Programming Solver developed at Zuse Institute Berlin (soplex.zib.de) [GitHash: 713be0fe]
  CppAD 20180000.0     Algorithmic Differentiation of C++ algorithms developed by B. Bell (github.com/coin-or/CppAD)
  ZLIB 1.2.11          General purpose compression library by J. Gailly and M. Adler (zlib.net)
  bliss 0.77           Computing Graph Automorphism Groups by T. Junttila and P. Kaski (www.tcs.hut.fi/Software/bliss/)

user parameter file <scip.set> not found - using default parameters

srr/relaxation = TRUE

read problem <instances/bin012_090_014.srr>
============

Original problem: 
original problem has 0 variables (0 bin, 0 int, 0 impl, 0 cont) and 77 constraints

presolving:
presolving (1 rounds: 1 fast, 1 medium, 1 exhaustive):
 0 deleted vars, 0 deleted constraints, 0 added constraints, 0 tightened bounds, 0 added holes, 0 changed sides, 0 changed coefficients
 0 implications, 0 cliques
presolved problem has 0 variables (0 bin, 0 int, 0 impl, 0 cont) and 77 constraints
     77 constraints of type <linear>
Presolving Time: 0.00

 time | node  | left  |LP iter|LP it/n|mem/heur|mdpt |vars |cons |rows |cuts |sepa|confs|strbr|  dualbound   | primalbound  |  gap   | compl. 
  0.0s|     1 |     0 |     1 |     - |   710k |   0 |   1 |  77 |  77 |   0 |  0 |   0 |   0 |      --      |      --      |    Inf | unknown
r 0.0s|     1 |     0 |   914 |     - |simplero|   0 | 666 |  77 |  77 |   0 |  0 |   0 |   0 |      --      | 4.573658e+01 |    Inf | unknown
r 0.0s|     1 |     0 |   951 |     - |simplero|   0 | 677 |  77 |  77 |   0 |  0 |   0 |   0 |      --      | 4.438408e+01 |    Inf | unknown
r 0.1s|     1 |     0 |  1017 |     - |simplero|   0 | 688 |  77 |  77 |   0 |  0 |   0 |   0 |      --      | 4.298001e+01 |    Inf | unknown
r 0.1s|     1 |     0 |  1060 |     - |simplero|   0 | 699 |  77 |  77 |   0 |  0 |   0 |   0 |      --      | 4.160634e+01 |    Inf | unknown
r 0.1s|     1 |     0 |  1085 |     - |simplero|   0 | 710 |  77 |  77 |   0 |  0 |   0 |   0 |      --      | 4.059316e+01 |    Inf | unknown
r 0.1s|     1 |     0 |  1102 |     - |simplero|   0 | 710 |  77 |  77 |   0 |  0 |   0 |   0 |      --      | 4.015461e+01 |    Inf | unknown
r 0.1s|     1 |     0 |  1104 |     - |simplero|   0 | 710 |  77 |  77 |   0 |  0 |   0 |   0 |      --      | 4.015015e+01 |    Inf | unknown
r 0.1s|     1 |     0 |  1133 |     - |simplero|   0 | 721 |  77 |  77 |   0 |  0 |   0 |   0 |      --      | 3.968427e+01 |    Inf | unknown
r 0.1s|     1 |     0 |  1139 |     - |simplero|   0 | 721 |  77 |  77 |   0 |  0 |   0 |   0 |      --      | 3.966554e+01 |    Inf | unknown
r 0.1s|     1 |     0 |  1188 |     - |simplero|   0 | 732 |  77 |  77 |   0 |  0 |   0 |   0 |      --      | 3.889791e+01 |    Inf | unknown
r 0.1s|     1 |     0 |  1203 |     - |simplero|   0 | 732 |  77 |  77 |   0 |  0 |   0 |   0 |      --      | 3.875429e+01 |    Inf | unknown
r 0.1s|     1 |     0 |  1222 |     - |simplero|   0 | 732 |  77 |  77 |   0 |  0 |   0 |   0 |      --      | 3.864656e+01 |    Inf | unknown
r 0.1s|     1 |     0 |  1271 |     - |simplero|   0 | 743 |  77 |  77 |   0 |  0 |   0 |   0 |      --      | 3.814544e+01 |    Inf | unknown
r 0.1s|     1 |     0 |  1287 |     - |simplero|   0 | 743 |  77 |  77 |   0 |  0 |   0 |   0 |      --      | 3.808958e+01 |    Inf | unknown
 time | node  | left  |LP iter|LP it/n|mem/heur|mdpt |vars |cons |rows |cuts |sepa|confs|strbr|  dualbound   | primalbound  |  gap   | compl. 
r 0.1s|     1 |     0 |  1295 |     - |simplero|   0 | 743 |  77 |  77 |   0 |  0 |   0 |   0 |      --      | 3.808436e+01 |    Inf | unknown
r 0.1s|     1 |     0 |  1334 |     - |simplero|   0 | 754 |  77 |  77 |   0 |  0 |   0 |   0 |      --      | 3.791188e+01 |    Inf | unknown
r 0.1s|     1 |     0 |  1336 |     - |simplero|   0 | 754 |  77 |  77 |   0 |  0 |   0 |   0 |      --      | 3.790436e+01 |    Inf | unknown
r 0.1s|     1 |     0 |  1344 |     - |simplero|   0 | 754 |  77 |  77 |   0 |  0 |   0 |   0 |      --      | 3.789413e+01 |    Inf | unknown
r 0.1s|     1 |     0 |  1347 |     - |simplero|   0 | 754 |  77 |  77 |   0 |  0 |   0 |   0 |      --      | 3.789301e+01 |    Inf | unknown
r 0.1s|     1 |     0 |  1382 |     - |simplero|   0 | 765 |  77 |  77 |   0 |  0 |   0 |   0 |      --      | 3.746695e+01 |    Inf | unknown
r 0.1s|     1 |     0 |  1414 |     - |simplero|   0 | 765 |  77 |  77 |   0 |  0 |   0 |   0 |      --      | 3.706864e+01 |    Inf | unknown
r 0.1s|     1 |     0 |  1416 |     - |simplero|   0 | 765 |  77 |  77 |   0 |  0 |   0 |   0 |      --      | 3.706857e+01 |    Inf | unknown
r 0.1s|     1 |     0 |  1446 |     - |simplero|   0 | 776 |  77 |  77 |   0 |  0 |   0 |   0 |      --      | 3.657987e+01 |    Inf | unknown
r 0.1s|     1 |     0 |  1481 |     - |simplero|   0 | 776 |  77 |  77 |   0 |  0 |   0 |   0 |      --      | 3.622379e+01 |    Inf | unknown
r 0.1s|     1 |     0 |  1491 |     - |simplero|   0 | 776 |  77 |  77 |   0 |  0 |   0 |   0 |      --      | 3.618035e+01 |    Inf | unknown
r 0.1s|     1 |     0 |  1492 |     - |simplero|   0 | 776 |  77 |  77 |   0 |  0 |   0 |   0 |      --      | 3.618027e+01 |    Inf | unknown
r 0.1s|     1 |     0 |  1544 |     - |simplero|   0 | 787 |  77 |  77 |   0 |  0 |   0 |   0 |      --      | 3.558646e+01 |    Inf | unknown
r 0.1s|     1 |     0 |  1551 |     - |simplero|   0 | 787 |  77 |  77 |   0 |  0 |   0 |   0 |      --      | 3.555701e+01 |    Inf | unknown
r 0.1s|     1 |     0 |  1556 |     - |simplero|   0 | 787 |  77 |  77 |   0 |  0 |   0 |   0 |      --      | 3.552968e+01 |    Inf | unknown
 time | node  | left  |LP iter|LP it/n|mem/heur|mdpt |vars |cons |rows |cuts |sepa|confs|strbr|  dualbound   | primalbound  |  gap   | compl. 
r 0.1s|     1 |     0 |  1588 |     - |simplero|   0 | 798 |  77 |  77 |   0 |  0 |   0 |   0 |      --      | 3.529523e+01 |    Inf | unknown
r 0.1s|     1 |     0 |  1600 |     - |simplero|   0 | 798 |  77 |  77 |   0 |  0 |   0 |   0 |      --      | 3.527106e+01 |    Inf | unknown
r 0.1s|     1 |     0 |  1610 |     - |simplero|   0 | 798 |  77 |  77 |   0 |  0 |   0 |   0 |      --      | 3.526453e+01 |    Inf | unknown
r 0.1s|     1 |     0 |  1666 |     - |simplero|   0 | 809 |  77 |  77 |   0 |  0 |   0 |   0 |      --      | 3.462062e+01 |    Inf | unknown
  0.1s|     1 |     0 |  1671 |     - |  3857k |   0 | 809 |  77 |  77 |   0 |  0 |   0 |   0 |      --      | 3.462062e+01 |    Inf | unknown
r 0.1s|     1 |     0 |  1671 |     - |simplero|   0 | 809 |  77 |  77 |   0 |  0 |   0 |   0 |      --      | 3.461624e+01 |    Inf | unknown
r 0.1s|     1 |     0 |  1673 |     - |simplero|   0 | 809 |  77 |  77 |   0 |  0 |   0 |   0 |      --      | 3.461561e+01 |    Inf | unknown
r 0.1s|     1 |     0 |  1701 |     - |simplero|   0 | 820 |  77 |  77 |   0 |  0 |   0 |   0 |      --      | 3.436297e+01 |    Inf | unknown
r 0.1s|     1 |     0 |  1725 |     - |simplero|   0 | 820 |  77 |  77 |   0 |  0 |   0 |   0 |      --      | 3.425645e+01 |    Inf | unknown
r 0.1s|     1 |     0 |  1767 |     - |simplero|   0 | 831 |  77 |  77 |   0 |  0 |   0 |   0 |      --      | 3.412385e+01 |    Inf | unknown
r 0.1s|     1 |     0 |  1772 |     - |simplero|   0 | 831 |  77 |  77 |   0 |  0 |   0 |   0 |      --      | 3.412245e+01 |    Inf | unknown
r 0.1s|     1 |     0 |  1791 |     - |simplero|   0 | 842 |  77 |  77 |   0 |  0 |   0 |   0 |      --      | 3.400000e+01 |    Inf | unknown
r 0.1s|     1 |     0 |  1831 |     - |simplero|   0 | 843 |  77 |  77 |   0 |  0 |   0 |   0 |      --      | 3.382938e+01 |    Inf | unknown
r 0.1s|     1 |     0 |  1844 |     - |simplero|   0 | 843 |  77 |  77 |   0 |  0 |   0 |   0 |      --      | 3.381919e+01 |    Inf | unknown
r 0.1s|     1 |     0 |  1848 |     - |simplero|   0 | 843 |  77 |  77 |   0 |  0 |   0 |   0 |      --      | 3.381906e+01 |    Inf | unknown
 time | node  | left  |LP iter|LP it/n|mem/heur|mdpt |vars |cons |rows |cuts |sepa|confs|strbr|  dualbound   | primalbound  |  gap   | compl. 
r 0.1s|     1 |     0 |  1893 |     - |simplero|   0 | 854 |  77 |  77 |   0 |  0 |   0 |   0 |      --      | 3.354762e+01 |    Inf | unknown
r 0.1s|     1 |     0 |  1920 |     - |simplero|   0 | 864 |  77 |  77 |   0 |  0 |   0 |   0 |      --      | 3.353333e+01 |    Inf | unknown
r 0.1s|     1 |     0 |  1929 |     - |simplero|   0 | 864 |  77 |  77 |   0 |  0 |   0 |   0 |      --      | 3.352764e+01 |    Inf | unknown
r 0.1s|     1 |     0 |  1931 |     - |simplero|   0 | 873 |  77 |  77 |   0 |  0 |   0 |   0 |      --      | 3.350000e+01 |    Inf | unknown
  0.1s|     1 |     0 |  1931 |     - |  4385k |   0 | 873 |  77 |  77 |   0 |  0 |   0 |   0 | 3.350000e+01 | 3.350000e+01 |   0.00%| unknown
  0.1s|     1 |     0 |  1931 |     - |  4385k |   0 | 873 |  77 |  77 |   0 |  0 |   0 |   0 | 3.350000e+01 | 3.350000e+01 |   0.00%| unknown

SCIP Status        : problem is solved [optimal solution found]
Solving Time (sec) : 0.09
Solving Nodes      : 1
Primal Bound       : +3.35000000000000e+01 (47 solutions)
Dual Bound         : +3.35000000000000e+01
Gap                : 0.00 %

written transformed problem to file <results_rootrelaxation/bin012_090_014.srr.lp>
written transformed problem to file <results_rootrelaxation/bin012_090_014.srr.cip>

written solution information to file <results_rootrelaxation/bin012_090_014.srr.sol>



